gen	cost
1	1455
2	1430
3	1420
4	1405
5	1388
6	1380
7	1367
8	1362
9	1352
10	1351
11	1323
12	1315
13	1315
14	1307
15	1296
16	1280
17	1270
18	1269
19	1264
20	1263
21	1248
22	1230
23	1226
24	1221
25	1220
26	1211
27	1197
28	1193
29	1182
30	1181
31	1173
32	1165
33	1157
34	1153
35	1150
36	1150
37	1149
38	1143
39	1141
40	1140
41	1135
42	1135
43	1135
44	1134
45	1130
46	1130
47	1129
48	1129
49	1129
50	1128

